db/data/184782397560983341228877039197646657.z3.out
sat
-------------------
27.351293160
